#             i j a     ga     si    s1    rc   rcc   Ri  Di    s2
pair_coeff    1 1 cc  0.00  0.00  0.00  0.40  1.58  1.00  0.00	1.730E-02	2.00	0.00	1.501E-02	2.00	0.00	8.867E-03	2.00	0.00	5.995E-03	2.00	0.00	8.508E-03	2.00	0.00	1.501E-02	2.00	0.00	2.125E-02	2.00	0.00	1.501E-02	2.00	0.00	1.802E-02	2.00	0.00	1.350E-02	2.00	0.00	3.662E-03	2.00	0.00	5.924E-03	2.00	0.00	1.274E-02	2.00	0.00	9.047E-03	2.00	0.00	1.479E-02	2.00	0.00	1.741E-02	2.00	0.00	1.454E-02	2.00	0.00	1.432E-02	2.00	0.00	1.569E-02	2.00	0.00	4.000E-04	2.00	0.00	8.710E-02	2.00	0.00	0.000E+00 2.00  0.00  0.000E+00 2.00
pair_coeff    1 2 cc  0.00  0.00  0.00  0.40  1.58  1.00  0.00	1.730E-02	2.00	0.00	1.501E-02	2.00	0.00	8.867E-03	2.00	0.00	5.995E-03	2.00	0.00	8.508E-03	2.00	0.00	1.501E-02	2.00	0.00	2.125E-02	2.00	0.00	1.501E-02	2.00	0.00	1.802E-02	2.00	0.00	1.350E-02	2.00	0.00	3.662E-03	2.00	0.00	5.924E-03	2.00	0.00	1.274E-02	2.00	0.00	9.047E-03	2.00	0.00	1.479E-02	2.00	0.00	1.741E-02	2.00	0.00	1.454E-02	2.00	0.00	1.432E-02	2.00	0.00	1.569E-02	2.00	0.00	4.000E-04	2.00	0.00	8.710E-02	2.00	0.00	0.000E+00 2.00  0.00  0.000E+00 2.00
